% demand
num_movements = 31;
loading_factor = [1350, 1650, 1800, 1750, 1650, 1750, 1600, 800, 950, 1350, 1600, 1500, 1300, 1500, 1900, 1650, 1450, 1600, 1750, 1000, 1250, 1950, 850, 1750, 1700, 1150, 800, 2000, 1750, 1650, 1150];
pickup_time = [0, 0, 0, 0, 0, 1, 1, 1, 1, 1, 1, 1, 1, 3, 4, 4, 4, 4, 4, 5, 5, 5, 6, 7, 7, 8, 8, 8, 8, 8, 8];
delivery_time = [1, 1, 1, 1, 1, 2, 2, 5, 2, 2, 4, 4, 2, 5, 5, 5, 5, 5, 5, 6, 8, 8, 8, 8, 9, 9, 9, 9, 9, 9, 9];

% transporter definition
total_capacity = 11000;
num_decks = 4;
capacity = [3000, 3000, 1000, 4000];

% ways out of decks
num_ways_out = 2;
paths_out = array3d(decks, ways_out, decks, [
% ways out of deck d1
2, 4, 0, 0, 3, 4, 0, 0, 

% ways out of deck d2
4, 0, 0, 0, 0, 0, 0, 0,	

% ways out of deck d3
4, 0, 0, 0, 0, 0, 0, 0,	

% ways out of deck d4
0, 0, 0, 0,	0, 0, 0, 0,	

]);

